p td 22 189
2 1
3 1
4 3
4 2
5 2
5 1
5 4
6 1
6 2
6 5
6 4
6 3
7 2
7 1
7 6
7 5
7 4
8 4
8 2
8 6
8 7
8 5
9 3
9 1
9 2
9 8
9 5
9 7
9 4
10 4
10 7
10 5
10 2
10 9
10 1
10 6
11 3
11 7
11 1
11 9
11 10
11 2
11 4
11 8
12 6
12 10
12 4
12 2
12 8
12 9
12 11
12 1
12 5
12 3
13 5
13 11
13 12
13 7
13 2
13 6
13 8
13 4
13 1
13 3
14 13
14 12
14 7
14 10
14 4
14 9
14 2
14 3
14 1
15 11
15 9
15 14
15 6
15 7
15 12
15 3
15 2
15 13
15 5
15 4
15 8
16 12
16 8
16 15
16 4
16 11
16 9
16 10
16 3
16 1
16 14
16 6
16 5
17 8
17 16
17 3
17 4
17 12
17 14
17 1
17 13
17 11
17 6
17 2
17 7
18 13
18 5
18 15
18 7
18 10
18 17
18 1
18 14
18 2
18 9
18 3
18 16
18 11
18 8
19 3
19 17
19 18
19 14
19 1
19 5
19 15
19 2
19 7
19 4
19 13
19 10
19 9
19 6
19 11
19 16
20 2
20 6
20 13
20 18
20 5
20 8
20 12
20 19
20 15
20 7
20 11
20 16
20 9
20 4
21 14
21 15
21 19
21 6
21 10
21 3
21 16
21 8
21 2
21 20
21 7
21 4
21 17
21 13
21 12
21 1
22 13
22 7
22 19
22 16
22 10
22 17
22 5
22 15
22 2
22 11
22 8
22 21
22 6
22 1
22 14
22 20
22 18
22 9
22 4
22 12
